log none
# -v cell 10 -v temp 1700 -v id 343
#------------------------------------------------
variable output_path string ../Data/cell.${cell}/temp.${temp}
#------------------------------------------------
read_restart ${output_path}/restart.equil
group vacancy id ${id}
delete_atoms group vacancy
#------------------------------------------------
label loop
variable i loop 5000
pair_style      eam/fs
pair_coeff      * * ../other/Fe_mm.eam.fs Fe
fix 1 all nve
dump           every_dump all custom 100 ${output_path}/dumps/${id}.dump x y z
variable step equal step
variable sim_temp equal temp
variable press equal press
run 1000
print '${i};${sim_temp};${press}' append ${output_path}/thermo_rt.txt screen no
write_restart ${output_path}/restart.corrent.${id}
undump every_dump
#------------------------------------------------
min_style cg
minimize 1e-9 1e-9 5000 5000
run 0
compute 	cna all cna/atom 3.45
compute 2 all reduce sum c_cna
thermo_style    custom step temp pe c_2
run 0
variable        cnat atom "c_cna != 3.0"
group inter variable cnat
variable n equal count(inter)
print '$n $i ${id}'
#------------------------------------------------
if '$n == 0' then 'jump SELF break'
#------------------------------------------------
next i
reset_timestep 0
clear
read_restart ${output_path}/restart.corrent.${id}
jump SELF loop
#------------------------------------------------
label break
print '$i;${id}' append ${output_path}/time_data.txt screen no
