# -var l 2.8712 -var t 700.0
#------------------------------------------------
shell mkdir coords
#------------------------------------------------
variable i loop 10000 #число рестартов
variable time_step equal 1000*$i
#------------------------------------------------
read_restart ./restarts/$t/${time_step}
pair_style      eam/fs
pair_coeff      * * ../Fe_mm.eam.fs Fe
min_style cg
minimize 1e-9 1e-9 5000 5000

compute cna all cna/atom 3.45
compute 2 all reduce sum c_cna
thermo_style    custom step temp pe c_2

#------------------------------------------------
variable cnat atom "c_cna != 3.0"
group sia_surround variable cnat
dump		after_min_sia sia_surround custom 1 ./data/dumps_$t/surr_sia.dump x y z
dump_modify after_min_sia append yes
compute comV sia_surround com

compute xu sia_surround property/atom xu
compute med_xu sia_surround reduce ave c_xu
compute med_x sia_surround reduce ave x

compute yu sia_surround property/atom yu
compute med_yu sia_surround reduce ave c_yu
compute med_y sia_surround reduce ave y
thermo_style custom step temp pe c_comV[1] c_comV[2] c_comV[3]

variable med_xu equal c_med_xu
variable med_x equal c_med_x

variable med_yu equal c_med_yu
variable med_y equal c_med_y

variable comX equal c_comV[1]
variable comY equal c_comV[2]
variable comZ equal c_comV[3]
variable time equal ${time_step}/1000
variable ts equal time
#dump		after_min_local all local 1 dump/$ilocal_after_min.dump c_comV[1] c_med_x c_med_xu
# fix useless all print 1 "${ts};${time};${comX};${med_x};${med_xu};${comY};${comZ};" append "useless" screen no title ''
# run 2
# print "${ts};${time};${comX};${med_x};${med_xu};${comY};${comZ}" append coords/coords_$t
# print "${time};${comX};${med_xu};${med_x};      ${comY};${med_xu};${med_x};     ${comZ}" append coords/coords_$t
print "${time};${comX};${comY};${comZ}" append coords/coords_$t

#print "${ts};${time};${comX};${med_x};${med_xu};${comY};${comZ}" append coords/coords_$t
clear
next i
jump restart_to_data.lmp
