# -var l 2.8712 -var t 7100.0
#------------------------------------------------
shell mkdir coords
#------------------------------------------------
variable i loop 10000 #число рестартов
variable time_step equal 10000*$i
#------------------------------------------------
read_restart ./restarts/$t/${time_step}
pair_style      eam/fs
pair_coeff      * * ../Fe_mm.eam.fs Fe
min_style cg
minimize 1e-9 1e-9 5000 5000
run 0
compute cna all cna/atom 3.45
compute 2 all reduce sum c_cna
thermo_style    custom step temp pe c_2
run 0
#------------------------------------------------
variable cnat atom "c_cna != 3.0"
group sia_surround variable cnat
compute comV sia_surround com
# compute un_x sia_surround property/atom xu
# compute med_xu sia_surround reduce ave xu
# compute med_x sia_surround reduce ave x
# variable med_xu equal c_med_xu
# variable med_x equal c_med_xu
variable comX equal c_comV[1]
variable comY equal c_comV[2]
variable comZ equal c_comV[3]
variable time equal ${time_step}/1000
fix useless all print 1 "${time};${comX};${comY};${comZ};" file "useless" screen no title ''
run 1
print "${time};${comX};${comY};${comZ}" append coords/coords_$t
clear
next i
jump restart_to_data.lmp
